<number of tasks>
50

<cycle time>
1000

<order strength>
0.596


<task times>
1 539
2 405
3 357
4 452
5 343
6 522
7 590
8 611
9 682
10 399
11 728
12 439
13 417
14 391
15 490
16 326
17 546
18 686
19 336
20 277
21 444
22 713
23 413
24 489
25 523
26 298
27 603
28 576
29 518
30 397
31 459
32 299
33 487
34 277
35 682
36 564
37 561
38 421
39 475
40 603
41 429
42 628
43 732
44 510
45 561
46 500
47 449
48 459
49 554
50 405

<precedence relations>
1,17
1,31
2,5
2,7
3,9
4,5
4,6
4,8
5,11
6,10
6,20
7,10
8,12
9,13
10,13
10,16
11,15
12,13
12,14
13,17
13,18
13,19
14,26
14,33
14,36
15,19
15,20
16,41
17,21
17,22
17,24
17,40
18,26
18,33
18,34
19,23
19,24
19,25
20,21
20,22
20,26
21,27
21,30
22,34
22,47
23,29
25,31
26,28
29,31
29,33
29,34
30,32
30,35
31,36
31,43
32,38
32,43
32,47
33,35
33,37
33,39
34,36
34,45
35,42
36,41
36,44
37,40
37,41
37,42
37,43
37,44
38,44
38,45
38,46
38,50
39,46
40,47
41,50
42,47
44,48
46,49

<end>
